10J3M/DAT/10J3MUNL-16.dat
10 3
41.0314 41.0314
39.303 39.303
48.5151 48.5151
33.6379 33.6379
42.3803 42.3803
18.5874 18.5874
10.7446 10.7446
20.1932 20.1932
46.7776 46.7776
11.4478 11.4478
312.6183