10J3M/SOL/10J3MUNL-16.sol
solution status: optimal solution found
objective value:                     88.4288666666667
x#1#1                               0.812859883613464 	(obj:0)
x#1#2                               0.187140116386536 	(obj:0)
x#2#1                                               1 	(obj:0)
x#3#2                                               1 	(obj:0)
x#4#1                                               1 	(obj:0)
x#5#2                                               1 	(obj:0)
x#6#1                                               1 	(obj:0)
x#7#1                                               1 	(obj:0)
x#8#3                                               1 	(obj:0)
x#9#3                                               1 	(obj:0)
x#10#2                              0.816695613744338 	(obj:0)
x#10#3                              0.183304386255662 	(obj:0)
z                                    88.4288666666667 	(obj:1)
